param : 	avail_local	avail_exterior	gwp_op_local	c_op_local := 
BN	WOOD	12600.0	0.0	0.0118	0.016980597
BN	WET_BIOMASS	231.7773203	0.0	0.0118	0.010318121
BN	WASTE	0.0	0.0	0.1501	0.021187834
BN	ELECTRICITY	0.0	0.0	0.412971429	0.063732
BN	GASOLINE	0.0	Infinity	0.3448	0.124118331
BN	DIESEL	0.0	Infinity	0.3148	0.111311495
BN	BIOETHANOL	0.0	0.0	0.0	0.122502774
BN	BIODIESEL	0.0	0.0	0.0	0.131394244
BN	LFO	0.0	Infinity	0.3115	0.085115655
BN	GAS	477.4322454	0.0	0.2666	0.010662519
BN	GAS_RE	0.0	0.0	0.0	0.132345636
BN	COAL	0.0	0.0	0.4014	0.015545445
BN	URANIUM	0.0	0.0	0.0039	0.003876456
BN	H2	0.0	0.0	0.414044616	0.077642645
BN	H2_RE	0.0	0.0	0.0	0.137854413
BN	AMMONIA	0.0	0.0	0.285	0.071991938
BN	METHANOL	0.0	0.0	0.35	0.081184572
BN	AMMONIA_RE	0.0	0.0	0.0	0.092751343
BN	METHANOL_RE	0.0	0.0	0.0	0.122502774
BN	CO2_EMISSIONS	Infinity	Infinity	0.0	0.0
BN	RES_WIND	Infinity	Infinity	0.0	0.0
BN	RES_SOLAR	Infinity	Infinity	0.0	0.0
BN	RES_HYDRO	Infinity	Infinity	0.0	0.0
BN	RES_GEO	Infinity	Infinity	0.0	0.0
BN	CO2_ATM	Infinity	Infinity	0.0	0.0
BN	CO2_INDUSTRY	0.0	0.0	0.0	0.0
BN	CO2_CAPTURED	0.0	0.0	0.0	0.0
BN	LPG	0.0	Infinity	0.28360908	0.021578745
CB	WOOD	12045.0	0.0	0.0118	0.016980597
CB	WET_BIOMASS	1325.003223	0.0	0.0118	0.010318121
CB	WASTE	0.0	0.0	0.1501	0.021187834
CB	ELECTRICITY	0.0	0.0	0.412971429	0.063732
CB	GASOLINE	0.0	Infinity	0.3448	0.124118331
CB	DIESEL	0.0	Infinity	0.3148	0.111311495
CB	BIOETHANOL	0.0	0.0	0.0	0.122502774
CB	BIODIESEL	0.0	0.0	0.0	0.131394244
CB	LFO	0.0	Infinity	0.3115	0.085115655
CB	GAS	477.4322454	0.0	0.2666	0.010662519
CB	GAS_RE	0.0	0.0	0.0	0.132345636
CB	COAL	0.0	0.0	0.4014	0.015545445
CB	URANIUM	0.0	0.0	0.0039	0.003876456
CB	H2	0.0	0.0	0.414044616	0.077642645
CB	H2_RE	0.0	0.0	0.0	0.137854413
CB	AMMONIA	0.0	0.0	0.285	0.071991938
CB	METHANOL	0.0	0.0	0.35	0.081184572
CB	AMMONIA_RE	0.0	0.0	0.0	0.092751343
CB	METHANOL_RE	0.0	0.0	0.0	0.122502774
CB	CO2_EMISSIONS	Infinity	Infinity	0.0	0.0
CB	RES_WIND	Infinity	Infinity	0.0	0.0
CB	RES_SOLAR	Infinity	Infinity	0.0	0.0
CB	RES_HYDRO	Infinity	Infinity	0.0	0.0
CB	RES_GEO	Infinity	Infinity	0.0	0.0
CB	CO2_ATM	Infinity	Infinity	0.0	0.0
CB	CO2_INDUSTRY	0.0	0.0	0.0	0.0
CB	CO2_CAPTURED	0.0	0.0	0.0	0.0
CB	LPG	0.0	Infinity	0.28360908	0.021578745
CH	WOOD	1605.0	0.0	0.0118	0.016980597
CH	WET_BIOMASS	313.5002138	0.0	0.0118	0.010318121
CH	WASTE	0.0	0.0	0.1501	0.021187834
CH	ELECTRICITY	0.0	0.0	0.412971429	0.063732
CH	GASOLINE	0.0	Infinity	0.3448	0.124118331
CH	DIESEL	0.0	Infinity	0.3148	0.111311495
CH	BIOETHANOL	0.0	0.0	0.0	0.122502774
CH	BIODIESEL	0.0	0.0	0.0	0.131394244
CH	LFO	0.0	Infinity	0.3115	0.085115655
CH	GAS	16276.11627	0.0	0.2666	0.010662519
CH	GAS_RE	0.0	0.0	0.0	0.132345636
CH	COAL	0.0	0.0	0.4014	0.015545445
CH	URANIUM	0.0	0.0	0.0039	0.003876456
CH	H2	0.0	0.0	0.414044616	0.077642645
CH	H2_RE	0.0	0.0	0.0	0.137854413
CH	AMMONIA	0.0	0.0	0.285	0.071991938
CH	METHANOL	0.0	0.0	0.35	0.081184572
CH	AMMONIA_RE	0.0	0.0	0.0	0.092751343
CH	METHANOL_RE	0.0	0.0	0.0	0.122502774
CH	CO2_EMISSIONS	Infinity	Infinity	0.0	0.0
CH	RES_WIND	Infinity	Infinity	0.0	0.0
CH	RES_SOLAR	Infinity	Infinity	0.0	0.0
CH	RES_HYDRO	Infinity	Infinity	0.0	0.0
CH	RES_GEO	Infinity	Infinity	0.0	0.0
CH	CO2_ATM	Infinity	Infinity	0.0	0.0
CH	CO2_INDUSTRY	0.0	0.0	0.0	0.0
CH	CO2_CAPTURED	0.0	0.0	0.0	0.0
CH	LPG	0.0	Infinity	0.28360908	0.021578745
LP	WOOD	39045.0	0.0	0.0118	0.016980597
LP	WET_BIOMASS	1482.777868	0.0	0.0118	0.010318121
LP	WASTE	0.0	0.0	0.1501	0.021187834
LP	ELECTRICITY	0.0	0.0	0.412971429	0.063732
LP	GASOLINE	0.0	Infinity	0.3448	0.124118331
LP	DIESEL	0.0	Infinity	0.3148	0.111311495
LP	BIOETHANOL	0.0	0.0	0.0	0.122502774
LP	BIODIESEL	0.0	0.0	0.0	0.131394244
LP	LFO	0.0	Infinity	0.3115	0.085115655
LP	GAS	477.4322454	0.0	0.2666	0.010662519
LP	GAS_RE	0.0	0.0	0.0	0.132345636
LP	COAL	0.0	0.0	0.4014	0.015545445
LP	URANIUM	0.0	0.0	0.0039	0.003876456
LP	H2	0.0	0.0	0.414044616	0.077642645
LP	H2_RE	0.0	0.0	0.0	0.137854413
LP	AMMONIA	0.0	0.0	0.285	0.071991938
LP	METHANOL	0.0	0.0	0.35	0.081184572
LP	AMMONIA_RE	0.0	0.0	0.0	0.092751343
LP	METHANOL_RE	0.0	0.0	0.0	0.122502774
LP	CO2_EMISSIONS	Infinity	Infinity	0.0	0.0
LP	RES_WIND	Infinity	Infinity	0.0	0.0
LP	RES_SOLAR	Infinity	Infinity	0.0	0.0
LP	RES_HYDRO	Infinity	Infinity	0.0	0.0
LP	RES_GEO	Infinity	Infinity	0.0	0.0
LP	CO2_ATM	Infinity	Infinity	0.0	0.0
LP	CO2_INDUSTRY	0.0	0.0	0.0	0.0
LP	CO2_CAPTURED	0.0	0.0	0.0	0.0
LP	LPG	0.0	Infinity	0.28360908	0.021578745
OR	WOOD	268.5995715	0.0	0.0118	0.016980597
OR	WET_BIOMASS	244.0025778	0.0	0.0118	0.010318121
OR	WASTE	0.0	0.0	0.1501	0.021187834
OR	ELECTRICITY	0.0	0.0	0.412971429	0.063732
OR	GASOLINE	0.0	Infinity	0.3448	0.124118331
OR	DIESEL	0.0	Infinity	0.3148	0.111311495
OR	BIOETHANOL	0.0	0.0	0.0	0.122502774
OR	BIODIESEL	0.0	0.0	0.0	0.131394244
OR	LFO	0.0	Infinity	0.3115	0.085115655
OR	GAS	477.4322454	0.0	0.2666	0.010662519
OR	GAS_RE	0.0	0.0	0.0	0.132345636
OR	COAL	0.0	0.0	0.4014	0.015545445
OR	URANIUM	0.0	0.0	0.0039	0.003876456
OR	H2	0.0	0.0	0.414044616	0.077642645
OR	H2_RE	0.0	0.0	0.0	0.137854413
OR	AMMONIA	0.0	0.0	0.285	0.071991938
OR	METHANOL	0.0	0.0	0.35	0.081184572
OR	AMMONIA_RE	0.0	0.0	0.0	0.092751343
OR	METHANOL_RE	0.0	0.0	0.0	0.122502774
OR	CO2_EMISSIONS	Infinity	Infinity	0.0	0.0
OR	RES_WIND	Infinity	Infinity	0.0	0.0
OR	RES_SOLAR	Infinity	Infinity	0.0	0.0
OR	RES_HYDRO	Infinity	Infinity	0.0	0.0
OR	RES_GEO	Infinity	Infinity	0.0	0.0
OR	CO2_ATM	Infinity	Infinity	0.0	0.0
OR	CO2_INDUSTRY	0.0	0.0	0.0	0.0
OR	CO2_CAPTURED	0.0	0.0	0.0	0.0
OR	LPG	0.0	Infinity	0.28360908	0.021578745
PT	WOOD	335.9219979	0.0	0.0118	0.016980597
PT	WET_BIOMASS	404.2860965	0.0	0.0118	0.010318121
PT	WASTE	0.0	0.0	0.1501	0.021187834
PT	ELECTRICITY	0.0	0.0	0.412971429	0.063732
PT	GASOLINE	0.0	Infinity	0.3448	0.124118331
PT	DIESEL	0.0	Infinity	0.3148	0.111311495
PT	BIOETHANOL	0.0	0.0	0.0	0.122502774
PT	BIODIESEL	0.0	0.0	0.0	0.131394244
PT	LFO	0.0	Infinity	0.3115	0.085115655
PT	GAS	477.4322454	0.0	0.2666	0.010662519
PT	GAS_RE	0.0	0.0	0.0	0.132345636
PT	COAL	0.0	0.0	0.4014	0.015545445
PT	URANIUM	0.0	0.0	0.0039	0.003876456
PT	H2	0.0	0.0	0.414044616	0.077642645
PT	H2_RE	0.0	0.0	0.0	0.137854413
PT	AMMONIA	0.0	0.0	0.285	0.071991938
PT	METHANOL	0.0	0.0	0.35	0.081184572
PT	AMMONIA_RE	0.0	0.0	0.0	0.092751343
PT	METHANOL_RE	0.0	0.0	0.0	0.122502774
PT	CO2_EMISSIONS	Infinity	Infinity	0.0	0.0
PT	RES_WIND	Infinity	Infinity	0.0	0.0
PT	RES_SOLAR	Infinity	Infinity	0.0	0.0
PT	RES_HYDRO	Infinity	Infinity	0.0	0.0
PT	RES_GEO	Infinity	Infinity	0.0	0.0
PT	CO2_ATM	Infinity	Infinity	0.0	0.0
PT	CO2_INDUSTRY	0.0	0.0	0.0	0.0
PT	CO2_CAPTURED	0.0	0.0	0.0	0.0
PT	LPG	0.0	Infinity	0.28360908	0.021578745
SABE	WOOD	6270.0	0.0	0.0118	0.016980597
SABE	WET_BIOMASS	309.4143623	0.0	0.0118	0.010318121
SABE	WASTE	0.0	0.0	0.1501	0.021187834
SABE	ELECTRICITY	0.0	0.0	0.412971429	0.063732
SABE	GASOLINE	0.0	Infinity	0.3448	0.124118331
SABE	DIESEL	0.0	Infinity	0.3148	0.111311495
SABE	BIOETHANOL	0.0	0.0	0.0	0.122502774
SABE	BIODIESEL	0.0	0.0	0.0	0.131394244
SABE	LFO	0.0	Infinity	0.3115	0.085115655
SABE	GAS	477.4322454	0.0	0.2666	0.010662519
SABE	GAS_RE	0.0	0.0	0.0	0.132345636
SABE	COAL	0.0	0.0	0.4014	0.015545445
SABE	URANIUM	0.0	0.0	0.0039	0.003876456
SABE	H2	0.0	0.0	0.414044616	0.077642645
SABE	H2_RE	0.0	0.0	0.0	0.137854413
SABE	AMMONIA	0.0	0.0	0.285	0.071991938
SABE	METHANOL	0.0	0.0	0.35	0.081184572
SABE	AMMONIA_RE	0.0	0.0	0.0	0.092751343
SABE	METHANOL_RE	0.0	0.0	0.0	0.122502774
SABE	CO2_EMISSIONS	Infinity	Infinity	0.0	0.0
SABE	RES_WIND	Infinity	Infinity	0.0	0.0
SABE	RES_SOLAR	Infinity	Infinity	0.0	0.0
SABE	RES_HYDRO	Infinity	Infinity	0.0	0.0
SABE	RES_GEO	Infinity	Infinity	0.0	0.0
SABE	CO2_ATM	Infinity	Infinity	0.0	0.0
SABE	CO2_INDUSTRY	0.0	0.0	0.0	0.0
SABE	CO2_CAPTURED	0.0	0.0	0.0	0.0
SABE	LPG	0.0	Infinity	0.28360908	0.021578745
SACA	WOOD	72900.0	0.0	0.0118	0.016980597
SACA	WET_BIOMASS	21141.14981	0.0	0.0118	0.010318121
SACA	WASTE	0.0	0.0	0.1501	0.021187834
SACA	ELECTRICITY	0.0	0.0	0.412971429	0.063732
SACA	GASOLINE	0.0	Infinity	0.3448	0.124118331
SACA	DIESEL	0.0	Infinity	0.3148	0.111311495
SACA	BIOETHANOL	0.0	0.0	0.0	0.122502774
SACA	BIODIESEL	0.0	0.0	0.0	0.131394244
SACA	LFO	0.0	Infinity	0.3115	0.085115655
SACA	GAS	477.4322454	0.0	0.2666	0.010662519
SACA	GAS_RE	0.0	0.0	0.0	0.132345636
SACA	COAL	0.0	0.0	0.4014	0.015545445
SACA	URANIUM	0.0	0.0	0.0039	0.003876456
SACA	H2	0.0	0.0	0.414044616	0.077642645
SACA	H2_RE	0.0	0.0	0.0	0.137854413
SACA	AMMONIA	0.0	0.0	0.285	0.071991938
SACA	METHANOL	0.0	0.0	0.35	0.081184572
SACA	AMMONIA_RE	0.0	0.0	0.0	0.092751343
SACA	METHANOL_RE	0.0	0.0	0.0	0.122502774
SACA	CO2_EMISSIONS	Infinity	Infinity	0.0	0.0
SACA	RES_WIND	Infinity	Infinity	0.0	0.0
SACA	RES_SOLAR	Infinity	Infinity	0.0	0.0
SACA	RES_HYDRO	Infinity	Infinity	0.0	0.0
SACA	RES_GEO	Infinity	Infinity	0.0	0.0
SACA	CO2_ATM	Infinity	Infinity	0.0	0.0
SACA	CO2_INDUSTRY	0.0	0.0	0.0	0.0
SACA	CO2_CAPTURED	0.0	0.0	0.0	0.0
SACA	LPG	0.0	Infinity	0.28360908	0.021578745
SACHA	WOOD	72900.0	0.0	0.0118	0.016980597
SACHA	WET_BIOMASS	21141.14981	0.0	0.0118	0.010318121
SACHA	WASTE	0.0	0.0	0.1501	0.021187834
SACHA	ELECTRICITY	0.0	0.0	0.412971429	0.063732
SACHA	GASOLINE	0.0	Infinity	0.3448	0.124118331
SACHA	DIESEL	0.0	Infinity	0.3148	0.111311495
SACHA	BIOETHANOL	0.0	0.0	0.0	0.122502774
SACHA	BIODIESEL	0.0	0.0	0.0	0.131394244
SACHA	LFO	0.0	Infinity	0.3115	0.085115655
SACHA	GAS	477.4322454	0.0	0.2666	0.010662519
SACHA	GAS_RE	0.0	0.0	0.0	0.132345636
SACHA	COAL	0.0	0.0	0.4014	0.015545445
SACHA	URANIUM	0.0	0.0	0.0039	0.003876456
SACHA	H2	0.0	0.0	0.414044616	0.077642645
SACHA	H2_RE	0.0	0.0	0.0	0.137854413
SACHA	AMMONIA	0.0	0.0	0.285	0.071991938
SACHA	METHANOL	0.0	0.0	0.35	0.081184572
SACHA	AMMONIA_RE	0.0	0.0	0.0	0.092751343
SACHA	METHANOL_RE	0.0	0.0	0.0	0.122502774
SACHA	CO2_EMISSIONS	Infinity	Infinity	0.0	0.0
SACHA	RES_WIND	Infinity	Infinity	0.0	0.0
SACHA	RES_SOLAR	Infinity	Infinity	0.0	0.0
SACHA	RES_HYDRO	Infinity	Infinity	0.0	0.0
SACHA	RES_GEO	Infinity	Infinity	0.0	0.0
SACHA	CO2_ATM	Infinity	Infinity	0.0	0.0
SACHA	CO2_INDUSTRY	0.0	0.0	0.0	0.0
SACHA	CO2_CAPTURED	0.0	0.0	0.0	0.0
SACHA	LPG	0.0	Infinity	0.28360908	0.021578745
SACHQ	WOOD	72900.0	0.0	0.0118	0.016980597
SACHQ	WET_BIOMASS	21141.14981	0.0	0.0118	0.010318121
SACHQ	WASTE	0.0	0.0	0.1501	0.021187834
SACHQ	ELECTRICITY	0.0	0.0	0.412971429	0.063732
SACHQ	GASOLINE	0.0	Infinity	0.3448	0.124118331
SACHQ	DIESEL	0.0	Infinity	0.3148	0.111311495
SACHQ	BIOETHANOL	0.0	0.0	0.0	0.122502774
SACHQ	BIODIESEL	0.0	0.0	0.0	0.131394244
SACHQ	LFO	0.0	Infinity	0.3115	0.085115655
SACHQ	GAS	477.4322454	0.0	0.2666	0.010662519
SACHQ	GAS_RE	0.0	0.0	0.0	0.132345636
SACHQ	COAL	0.0	0.0	0.4014	0.015545445
SACHQ	URANIUM	0.0	0.0	0.0039	0.003876456
SACHQ	H2	0.0	0.0	0.414044616	0.077642645
SACHQ	H2_RE	0.0	0.0	0.0	0.137854413
SACHQ	AMMONIA	0.0	0.0	0.285	0.071991938
SACHQ	METHANOL	0.0	0.0	0.35	0.081184572
SACHQ	AMMONIA_RE	0.0	0.0	0.0	0.092751343
SACHQ	METHANOL_RE	0.0	0.0	0.0	0.122502774
SACHQ	CO2_EMISSIONS	Infinity	Infinity	0.0	0.0
SACHQ	RES_WIND	Infinity	Infinity	0.0	0.0
SACHQ	RES_SOLAR	Infinity	Infinity	0.0	0.0
SACHQ	RES_HYDRO	Infinity	Infinity	0.0	0.0
SACHQ	RES_GEO	Infinity	Infinity	0.0	0.0
SACHQ	CO2_ATM	Infinity	Infinity	0.0	0.0
SACHQ	CO2_INDUSTRY	0.0	0.0	0.0	0.0
SACHQ	CO2_CAPTURED	0.0	0.0	0.0	0.0
SACHQ	LPG	0.0	Infinity	0.28360908	0.021578745
SAEE	WOOD	72900.0	0.0	0.0118	0.016980597
SAEE	WET_BIOMASS	21141.14981	0.0	0.0118	0.010318121
SAEE	WASTE	0.0	0.0	0.1501	0.021187834
SAEE	ELECTRICITY	0.0	0.0	0.412971429	0.063732
SAEE	GASOLINE	0.0	Infinity	0.3448	0.124118331
SAEE	DIESEL	0.0	Infinity	0.3148	0.111311495
SAEE	BIOETHANOL	0.0	0.0	0.0	0.122502774
SAEE	BIODIESEL	0.0	0.0	0.0	0.131394244
SAEE	LFO	0.0	Infinity	0.3115	0.085115655
SAEE	GAS	477.4322454	0.0	0.2666	0.010662519
SAEE	GAS_RE	0.0	0.0	0.0	0.132345636
SAEE	COAL	0.0	0.0	0.4014	0.015545445
SAEE	URANIUM	0.0	0.0	0.0039	0.003876456
SAEE	H2	0.0	0.0	0.414044616	0.077642645
SAEE	H2_RE	0.0	0.0	0.0	0.137854413
SAEE	AMMONIA	0.0	0.0	0.285	0.071991938
SAEE	METHANOL	0.0	0.0	0.35	0.081184572
SAEE	AMMONIA_RE	0.0	0.0	0.0	0.092751343
SAEE	METHANOL_RE	0.0	0.0	0.0	0.122502774
SAEE	CO2_EMISSIONS	Infinity	Infinity	0.0	0.0
SAEE	RES_WIND	Infinity	Infinity	0.0	0.0
SAEE	RES_SOLAR	Infinity	Infinity	0.0	0.0
SAEE	RES_HYDRO	Infinity	Infinity	0.0	0.0
SAEE	RES_GEO	Infinity	Infinity	0.0	0.0
SAEE	CO2_ATM	Infinity	Infinity	0.0	0.0
SAEE	CO2_INDUSTRY	0.0	0.0	0.0	0.0
SAEE	CO2_CAPTURED	0.0	0.0	0.0	0.0
SAEE	LPG	0.0	Infinity	0.28360908	0.021578745
SAER	WOOD	6270.0	0.0	0.0118	0.016980597
SAER	WET_BIOMASS	309.4143623	0.0	0.0118	0.010318121
SAER	WASTE	0.0	0.0	0.1501	0.021187834
SAER	ELECTRICITY	0.0	0.0	0.412971429	0.063732
SAER	GASOLINE	0.0	Infinity	0.3448	0.124118331
SAER	DIESEL	0.0	Infinity	0.3148	0.111311495
SAER	BIOETHANOL	0.0	0.0	0.0	0.122502774
SAER	BIODIESEL	0.0	0.0	0.0	0.131394244
SAER	LFO	0.0	Infinity	0.3115	0.085115655
SAER	GAS	477.4322454	0.0	0.2666	0.010662519
SAER	GAS_RE	0.0	0.0	0.0	0.132345636
SAER	COAL	0.0	0.0	0.4014	0.015545445
SAER	URANIUM	0.0	0.0	0.0039	0.003876456
SAER	H2	0.0	0.0	0.414044616	0.077642645
SAER	H2_RE	0.0	0.0	0.0	0.137854413
SAER	AMMONIA	0.0	0.0	0.285	0.071991938
SAER	METHANOL	0.0	0.0	0.35	0.081184572
SAER	AMMONIA_RE	0.0	0.0	0.0	0.092751343
SAER	METHANOL_RE	0.0	0.0	0.0	0.122502774
SAER	CO2_EMISSIONS	Infinity	Infinity	0.0	0.0
SAER	RES_WIND	Infinity	Infinity	0.0	0.0
SAER	RES_SOLAR	Infinity	Infinity	0.0	0.0
SAER	RES_HYDRO	Infinity	Infinity	0.0	0.0
SAER	RES_GEO	Infinity	Infinity	0.0	0.0
SAER	CO2_ATM	Infinity	Infinity	0.0	0.0
SAER	CO2_INDUSTRY	0.0	0.0	0.0	0.0
SAER	CO2_CAPTURED	0.0	0.0	0.0	0.0
SAER	LPG	0.0	Infinity	0.28360908	0.021578745
SAGB	WOOD	72900.0	0.0	0.0118	0.016980597
SAGB	WET_BIOMASS	21141.14981	0.0	0.0118	0.010318121
SAGB	WASTE	0.0	0.0	0.1501	0.021187834
SAGB	ELECTRICITY	0.0	0.0	0.412971429	0.063732
SAGB	GASOLINE	0.0	Infinity	0.3448	0.124118331
SAGB	DIESEL	0.0	Infinity	0.3148	0.111311495
SAGB	BIOETHANOL	0.0	0.0	0.0	0.122502774
SAGB	BIODIESEL	0.0	0.0	0.0	0.131394244
SAGB	LFO	0.0	Infinity	0.3115	0.085115655
SAGB	GAS	477.4322454	0.0	0.2666	0.010662519
SAGB	GAS_RE	0.0	0.0	0.0	0.132345636
SAGB	COAL	0.0	0.0	0.4014	0.015545445
SAGB	URANIUM	0.0	0.0	0.0039	0.003876456
SAGB	H2	0.0	0.0	0.414044616	0.077642645
SAGB	H2_RE	0.0	0.0	0.0	0.137854413
SAGB	AMMONIA	0.0	0.0	0.285	0.071991938
SAGB	METHANOL	0.0	0.0	0.35	0.081184572
SAGB	AMMONIA_RE	0.0	0.0	0.0	0.092751343
SAGB	METHANOL_RE	0.0	0.0	0.0	0.122502774
SAGB	CO2_EMISSIONS	Infinity	Infinity	0.0	0.0
SAGB	RES_WIND	Infinity	Infinity	0.0	0.0
SAGB	RES_SOLAR	Infinity	Infinity	0.0	0.0
SAGB	RES_HYDRO	Infinity	Infinity	0.0	0.0
SAGB	RES_GEO	Infinity	Infinity	0.0	0.0
SAGB	CO2_ATM	Infinity	Infinity	0.0	0.0
SAGB	CO2_INDUSTRY	0.0	0.0	0.0	0.0
SAGB	CO2_CAPTURED	0.0	0.0	0.0	0.0
SAGB	LPG	0.0	Infinity	0.28360908	0.021578745
SAIT	WOOD	12600.0	0.0	0.0118	0.016980597
SAIT	WET_BIOMASS	231.7773203	0.0	0.0118	0.010318121
SAIT	WASTE	0.0	0.0	0.1501	0.021187834
SAIT	ELECTRICITY	0.0	0.0	0.412971429	0.063732
SAIT	GASOLINE	0.0	Infinity	0.3448	0.124118331
SAIT	DIESEL	0.0	Infinity	0.3148	0.111311495
SAIT	BIOETHANOL	0.0	0.0	0.0	0.122502774
SAIT	BIODIESEL	0.0	0.0	0.0	0.131394244
SAIT	LFO	0.0	Infinity	0.3115	0.085115655
SAIT	GAS	477.4322454	0.0	0.2666	0.010662519
SAIT	GAS_RE	0.0	0.0	0.0	0.132345636
SAIT	COAL	0.0	0.0	0.4014	0.015545445
SAIT	URANIUM	0.0	0.0	0.0039	0.003876456
SAIT	H2	0.0	0.0	0.414044616	0.077642645
SAIT	H2_RE	0.0	0.0	0.0	0.137854413
SAIT	AMMONIA	0.0	0.0	0.285	0.071991938
SAIT	METHANOL	0.0	0.0	0.35	0.081184572
SAIT	AMMONIA_RE	0.0	0.0	0.0	0.092751343
SAIT	METHANOL_RE	0.0	0.0	0.0	0.122502774
SAIT	CO2_EMISSIONS	Infinity	Infinity	0.0	0.0
SAIT	RES_WIND	Infinity	Infinity	0.0	0.0
SAIT	RES_SOLAR	Infinity	Infinity	0.0	0.0
SAIT	RES_HYDRO	Infinity	Infinity	0.0	0.0
SAIT	RES_GEO	Infinity	Infinity	0.0	0.0
SAIT	CO2_ATM	Infinity	Infinity	0.0	0.0
SAIT	CO2_INDUSTRY	0.0	0.0	0.0	0.0
SAIT	CO2_CAPTURED	0.0	0.0	0.0	0.0
SAIT	LPG	0.0	Infinity	0.28360908	0.021578745
SAMI	WOOD	72900.0	0.0	0.0118	0.016980597
SAMI	WET_BIOMASS	21141.14981	0.0	0.0118	0.010318121
SAMI	WASTE	0.0	0.0	0.1501	0.021187834
SAMI	ELECTRICITY	0.0	0.0	0.412971429	0.063732
SAMI	GASOLINE	0.0	Infinity	0.3448	0.124118331
SAMI	DIESEL	0.0	Infinity	0.3148	0.111311495
SAMI	BIOETHANOL	0.0	0.0	0.0	0.122502774
SAMI	BIODIESEL	0.0	0.0	0.0	0.131394244
SAMI	LFO	0.0	Infinity	0.3115	0.085115655
SAMI	GAS	477.4322454	0.0	0.2666	0.010662519
SAMI	GAS_RE	0.0	0.0	0.0	0.132345636
SAMI	COAL	0.0	0.0	0.4014	0.015545445
SAMI	URANIUM	0.0	0.0	0.0039	0.003876456
SAMI	H2	0.0	0.0	0.414044616	0.077642645
SAMI	H2_RE	0.0	0.0	0.0	0.137854413
SAMI	AMMONIA	0.0	0.0	0.285	0.071991938
SAMI	METHANOL	0.0	0.0	0.35	0.081184572
SAMI	AMMONIA_RE	0.0	0.0	0.0	0.092751343
SAMI	METHANOL_RE	0.0	0.0	0.0	0.122502774
SAMI	CO2_EMISSIONS	Infinity	Infinity	0.0	0.0
SAMI	RES_WIND	Infinity	Infinity	0.0	0.0
SAMI	RES_SOLAR	Infinity	Infinity	0.0	0.0
SAMI	RES_HYDRO	Infinity	Infinity	0.0	0.0
SAMI	RES_GEO	Infinity	Infinity	0.0	0.0
SAMI	CO2_ATM	Infinity	Infinity	0.0	0.0
SAMI	CO2_INDUSTRY	0.0	0.0	0.0	0.0
SAMI	CO2_CAPTURED	0.0	0.0	0.0	0.0
SAMI	LPG	0.0	Infinity	0.28360908	0.021578745
SANA	WOOD	5445.0	0.0	0.0118	0.016980597
SANA	WET_BIOMASS	96.66918521	0.0	0.0118	0.010318121
SANA	WASTE	0.0	0.0	0.1501	0.021187834
SANA	ELECTRICITY	0.0	0.0	0.412971429	0.063732
SANA	GASOLINE	0.0	Infinity	0.3448	0.124118331
SANA	DIESEL	0.0	Infinity	0.3148	0.111311495
SANA	BIOETHANOL	0.0	0.0	0.0	0.122502774
SANA	BIODIESEL	0.0	0.0	0.0	0.131394244
SANA	LFO	0.0	Infinity	0.3115	0.085115655
SANA	GAS	477.4322454	0.0	0.2666	0.010662519
SANA	GAS_RE	0.0	0.0	0.0	0.132345636
SANA	COAL	0.0	0.0	0.4014	0.015545445
SANA	URANIUM	0.0	0.0	0.0039	0.003876456
SANA	H2	0.0	0.0	0.414044616	0.077642645
SANA	H2_RE	0.0	0.0	0.0	0.137854413
SANA	AMMONIA	0.0	0.0	0.285	0.071991938
SANA	METHANOL	0.0	0.0	0.35	0.081184572
SANA	AMMONIA_RE	0.0	0.0	0.0	0.092751343
SANA	METHANOL_RE	0.0	0.0	0.0	0.122502774
SANA	CO2_EMISSIONS	Infinity	Infinity	0.0	0.0
SANA	RES_WIND	Infinity	Infinity	0.0	0.0
SANA	RES_SOLAR	Infinity	Infinity	0.0	0.0
SANA	RES_HYDRO	Infinity	Infinity	0.0	0.0
SANA	RES_GEO	Infinity	Infinity	0.0	0.0
SANA	CO2_ATM	Infinity	Infinity	0.0	0.0
SANA	CO2_INDUSTRY	0.0	0.0	0.0	0.0
SANA	CO2_CAPTURED	0.0	0.0	0.0	0.0
SANA	LPG	0.0	Infinity	0.28360908	0.021578745
SASI	WOOD	72900.0	0.0	0.0118	0.016980597
SASI	WET_BIOMASS	21141.14981	0.0	0.0118	0.010318121
SASI	WASTE	0.0	0.0	0.1501	0.021187834
SASI	ELECTRICITY	0.0	0.0	0.412971429	0.063732
SASI	GASOLINE	0.0	Infinity	0.3448	0.124118331
SASI	DIESEL	0.0	Infinity	0.3148	0.111311495
SASI	BIOETHANOL	0.0	0.0	0.0	0.122502774
SASI	BIODIESEL	0.0	0.0	0.0	0.131394244
SASI	LFO	0.0	Infinity	0.3115	0.085115655
SASI	GAS	477.4322454	0.0	0.2666	0.010662519
SASI	GAS_RE	0.0	0.0	0.0	0.132345636
SASI	COAL	0.0	0.0	0.4014	0.015545445
SASI	URANIUM	0.0	0.0	0.0039	0.003876456
SASI	H2	0.0	0.0	0.414044616	0.077642645
SASI	H2_RE	0.0	0.0	0.0	0.137854413
SASI	AMMONIA	0.0	0.0	0.285	0.071991938
SASI	METHANOL	0.0	0.0	0.35	0.081184572
SASI	AMMONIA_RE	0.0	0.0	0.0	0.092751343
SASI	METHANOL_RE	0.0	0.0	0.0	0.122502774
SASI	CO2_EMISSIONS	Infinity	Infinity	0.0	0.0
SASI	RES_WIND	Infinity	Infinity	0.0	0.0
SASI	RES_SOLAR	Infinity	Infinity	0.0	0.0
SASI	RES_HYDRO	Infinity	Infinity	0.0	0.0
SASI	RES_GEO	Infinity	Infinity	0.0	0.0
SASI	CO2_ATM	Infinity	Infinity	0.0	0.0
SASI	CO2_INDUSTRY	0.0	0.0	0.0	0.0
SASI	CO2_CAPTURED	0.0	0.0	0.0	0.0
SASI	LPG	0.0	Infinity	0.28360908	0.021578745
SASM	WOOD	72900.0	0.0	0.0118	0.016980597
SASM	WET_BIOMASS	21141.14981	0.0	0.0118	0.010318121
SASM	WASTE	0.0	0.0	0.1501	0.021187834
SASM	ELECTRICITY	0.0	0.0	0.412971429	0.063732
SASM	GASOLINE	0.0	Infinity	0.3448	0.124118331
SASM	DIESEL	0.0	Infinity	0.3148	0.111311495
SASM	BIOETHANOL	0.0	0.0	0.0	0.122502774
SASM	BIODIESEL	0.0	0.0	0.0	0.131394244
SASM	LFO	0.0	Infinity	0.3115	0.085115655
SASM	GAS	477.4322454	0.0	0.2666	0.010662519
SASM	GAS_RE	0.0	0.0	0.0	0.132345636
SASM	COAL	0.0	0.0	0.4014	0.015545445
SASM	URANIUM	0.0	0.0	0.0039	0.003876456
SASM	H2	0.0	0.0	0.414044616	0.077642645
SASM	H2_RE	0.0	0.0	0.0	0.137854413
SASM	AMMONIA	0.0	0.0	0.285	0.071991938
SASM	METHANOL	0.0	0.0	0.35	0.081184572
SASM	AMMONIA_RE	0.0	0.0	0.0	0.092751343
SASM	METHANOL_RE	0.0	0.0	0.0	0.122502774
SASM	CO2_EMISSIONS	Infinity	Infinity	0.0	0.0
SASM	RES_WIND	Infinity	Infinity	0.0	0.0
SASM	RES_SOLAR	Infinity	Infinity	0.0	0.0
SASM	RES_HYDRO	Infinity	Infinity	0.0	0.0
SASM	RES_GEO	Infinity	Infinity	0.0	0.0
SASM	CO2_ATM	Infinity	Infinity	0.0	0.0
SASM	CO2_INDUSTRY	0.0	0.0	0.0	0.0
SASM	CO2_CAPTURED	0.0	0.0	0.0	0.0
SASM	LPG	0.0	Infinity	0.28360908	0.021578745
SATA	WOOD	6270.0	0.0	0.0118	0.016980597
SATA	WET_BIOMASS	309.4143623	0.0	0.0118	0.010318121
SATA	WASTE	0.0	0.0	0.1501	0.021187834
SATA	ELECTRICITY	0.0	0.0	0.412971429	0.063732
SATA	GASOLINE	0.0	Infinity	0.3448	0.124118331
SATA	DIESEL	0.0	Infinity	0.3148	0.111311495
SATA	BIOETHANOL	0.0	0.0	0.0	0.122502774
SATA	BIODIESEL	0.0	0.0	0.0	0.131394244
SATA	LFO	0.0	Infinity	0.3115	0.085115655
SATA	GAS	477.4322454	0.0	0.2666	0.010662519
SATA	GAS_RE	0.0	0.0	0.0	0.132345636
SATA	COAL	0.0	0.0	0.4014	0.015545445
SATA	URANIUM	0.0	0.0	0.0039	0.003876456
SATA	H2	0.0	0.0	0.414044616	0.077642645
SATA	H2_RE	0.0	0.0	0.0	0.137854413
SATA	AMMONIA	0.0	0.0	0.285	0.071991938
SATA	METHANOL	0.0	0.0	0.35	0.081184572
SATA	AMMONIA_RE	0.0	0.0	0.0	0.092751343
SATA	METHANOL_RE	0.0	0.0	0.0	0.122502774
SATA	CO2_EMISSIONS	Infinity	Infinity	0.0	0.0
SATA	RES_WIND	Infinity	Infinity	0.0	0.0
SATA	RES_SOLAR	Infinity	Infinity	0.0	0.0
SATA	RES_HYDRO	Infinity	Infinity	0.0	0.0
SATA	RES_GEO	Infinity	Infinity	0.0	0.0
SATA	CO2_ATM	Infinity	Infinity	0.0	0.0
SATA	CO2_INDUSTRY	0.0	0.0	0.0	0.0
SATA	CO2_CAPTURED	0.0	0.0	0.0	0.0
SATA	LPG	0.0	Infinity	0.28360908	0.021578745
SAVC	WOOD	72900.0	0.0	0.0118	0.016980597
SAVC	WET_BIOMASS	21141.14981	0.0	0.0118	0.010318121
SAVC	WASTE	0.0	0.0	0.1501	0.021187834
SAVC	ELECTRICITY	0.0	0.0	0.412971429	0.063732
SAVC	GASOLINE	0.0	Infinity	0.3448	0.124118331
SAVC	DIESEL	0.0	Infinity	0.3148	0.111311495
SAVC	BIOETHANOL	0.0	0.0	0.0	0.122502774
SAVC	BIODIESEL	0.0	0.0	0.0	0.131394244
SAVC	LFO	0.0	Infinity	0.3115	0.085115655
SAVC	GAS	477.4322454	0.0	0.2666	0.010662519
SAVC	GAS_RE	0.0	0.0	0.0	0.132345636
SAVC	COAL	0.0	0.0	0.4014	0.015545445
SAVC	URANIUM	0.0	0.0	0.0039	0.003876456
SAVC	H2	0.0	0.0	0.414044616	0.077642645
SAVC	H2_RE	0.0	0.0	0.0	0.137854413
SAVC	AMMONIA	0.0	0.0	0.285	0.071991938
SAVC	METHANOL	0.0	0.0	0.35	0.081184572
SAVC	AMMONIA_RE	0.0	0.0	0.0	0.092751343
SAVC	METHANOL_RE	0.0	0.0	0.0	0.122502774
SAVC	CO2_EMISSIONS	Infinity	Infinity	0.0	0.0
SAVC	RES_WIND	Infinity	Infinity	0.0	0.0
SAVC	RES_SOLAR	Infinity	Infinity	0.0	0.0
SAVC	RES_HYDRO	Infinity	Infinity	0.0	0.0
SAVC	RES_GEO	Infinity	Infinity	0.0	0.0
SAVC	CO2_ATM	Infinity	Infinity	0.0	0.0
SAVC	CO2_INDUSTRY	0.0	0.0	0.0	0.0
SAVC	CO2_CAPTURED	0.0	0.0	0.0	0.0
SAVC	LPG	0.0	Infinity	0.28360908	0.021578745
SAYA	WOOD	12600.0	0.0	0.0118	0.016980597
SAYA	WET_BIOMASS	231.7773203	0.0	0.0118	0.010318121
SAYA	WASTE	0.0	0.0	0.1501	0.021187834
SAYA	ELECTRICITY	0.0	0.0	0.412971429	0.063732
SAYA	GASOLINE	0.0	Infinity	0.3448	0.124118331
SAYA	DIESEL	0.0	Infinity	0.3148	0.111311495
SAYA	BIOETHANOL	0.0	0.0	0.0	0.122502774
SAYA	BIODIESEL	0.0	0.0	0.0	0.131394244
SAYA	LFO	0.0	Infinity	0.3115	0.085115655
SAYA	GAS	477.4322454	0.0	0.2666	0.010662519
SAYA	GAS_RE	0.0	0.0	0.0	0.132345636
SAYA	COAL	0.0	0.0	0.4014	0.015545445
SAYA	URANIUM	0.0	0.0	0.0039	0.003876456
SAYA	H2	0.0	0.0	0.414044616	0.077642645
SAYA	H2_RE	0.0	0.0	0.0	0.137854413
SAYA	AMMONIA	0.0	0.0	0.285	0.071991938
SAYA	METHANOL	0.0	0.0	0.35	0.081184572
SAYA	AMMONIA_RE	0.0	0.0	0.0	0.092751343
SAYA	METHANOL_RE	0.0	0.0	0.0	0.122502774
SAYA	CO2_EMISSIONS	Infinity	Infinity	0.0	0.0
SAYA	RES_WIND	Infinity	Infinity	0.0	0.0
SAYA	RES_SOLAR	Infinity	Infinity	0.0	0.0
SAYA	RES_HYDRO	Infinity	Infinity	0.0	0.0
SAYA	RES_GEO	Infinity	Infinity	0.0	0.0
SAYA	CO2_ATM	Infinity	Infinity	0.0	0.0
SAYA	CO2_INDUSTRY	0.0	0.0	0.0	0.0
SAYA	CO2_CAPTURED	0.0	0.0	0.0	0.0
SAYA	LPG	0.0	Infinity	0.28360908	0.021578745
SC	WOOD	72900.0	0.0	0.0118	0.016980597
SC	WET_BIOMASS	21141.14981	0.0	0.0118	0.010318121
SC	WASTE	0.0	0.0	0.1501	0.021187834
SC	ELECTRICITY	0.0	0.0	0.412971429	0.063732
SC	GASOLINE	0.0	Infinity	0.3448	0.124118331
SC	DIESEL	0.0	Infinity	0.3148	0.111311495
SC	BIOETHANOL	0.0	0.0	0.0	0.122502774
SC	BIODIESEL	0.0	0.0	0.0	0.131394244
SC	LFO	0.0	Infinity	0.3115	0.085115655
SC	GAS	13610.21781	0.0	0.2666	0.010662519
SC	GAS_RE	0.0	0.0	0.0	0.132345636
SC	COAL	0.0	0.0	0.4014	0.015545445
SC	URANIUM	0.0	0.0	0.0039	0.003876456
SC	H2	0.0	0.0	0.414044616	0.077642645
SC	H2_RE	0.0	0.0	0.0	0.137854413
SC	AMMONIA	0.0	0.0	0.285	0.071991938
SC	METHANOL	0.0	0.0	0.35	0.081184572
SC	AMMONIA_RE	0.0	0.0	0.0	0.092751343
SC	METHANOL_RE	0.0	0.0	0.0	0.122502774
SC	CO2_EMISSIONS	Infinity	Infinity	0.0	0.0
SC	RES_WIND	Infinity	Infinity	0.0	0.0
SC	RES_SOLAR	Infinity	Infinity	0.0	0.0
SC	RES_HYDRO	Infinity	Infinity	0.0	0.0
SC	RES_GEO	Infinity	Infinity	0.0	0.0
SC	CO2_ATM	Infinity	Infinity	0.0	0.0
SC	CO2_INDUSTRY	0.0	0.0	0.0	0.0
SC	CO2_CAPTURED	0.0	0.0	0.0	0.0
SC	LPG	0.0	Infinity	0.28360908	0.021578745
TJ	WOOD	6270.0	0.0	0.0118	0.016980597
TJ	WET_BIOMASS	309.4143623	0.0	0.0118	0.010318121
TJ	WASTE	0.0	0.0	0.1501	0.021187834
TJ	ELECTRICITY	0.0	0.0	0.412971429	0.063732
TJ	GASOLINE	0.0	Infinity	0.3448	0.124118331
TJ	DIESEL	0.0	Infinity	0.3148	0.111311495
TJ	BIOETHANOL	0.0	0.0	0.0	0.122502774
TJ	BIODIESEL	0.0	0.0	0.0	0.131394244
TJ	LFO	0.0	Infinity	0.3115	0.085115655
TJ	GAS	17856.78849	0.0	0.2666	0.010662519
TJ	GAS_RE	0.0	0.0	0.0	0.132345636
TJ	COAL	0.0	0.0	0.4014	0.015545445
TJ	URANIUM	0.0	0.0	0.0039	0.003876456
TJ	H2	0.0	0.0	0.414044616	0.077642645
TJ	H2_RE	0.0	0.0	0.0	0.137854413
TJ	AMMONIA	0.0	0.0	0.285	0.071991938
TJ	METHANOL	0.0	0.0	0.35	0.081184572
TJ	AMMONIA_RE	0.0	0.0	0.0	0.092751343
TJ	METHANOL_RE	0.0	0.0	0.0	0.122502774
TJ	CO2_EMISSIONS	Infinity	Infinity	0.0	0.0
TJ	RES_WIND	Infinity	Infinity	0.0	0.0
TJ	RES_SOLAR	Infinity	Infinity	0.0	0.0
TJ	RES_HYDRO	Infinity	Infinity	0.0	0.0
TJ	RES_GEO	Infinity	Infinity	0.0	0.0
TJ	CO2_ATM	Infinity	Infinity	0.0	0.0
TJ	CO2_INDUSTRY	0.0	0.0	0.0	0.0
TJ	CO2_CAPTURED	0.0	0.0	0.0	0.0
TJ	LPG	0.0	Infinity	0.28360908	0.021578745
;
